\* Problem: Unknown *\

Maximize
 obj: + xp_0_0 + xp_0_1 + xp_0_2 + xp_0_3 + xp_0_4 + xp_0_5 + xp_0_6
 + xp_0_7 + xp_0_8 + xp_1_0 + xp_1_1 + xp_1_2 + xp_2_0 + xp_2_1 + xp_2_2
 + xp_2_3 + xp_2_4 + xp_3_0 + xp_3_1 + xp_3_2 + xp_3_3 + xp_4_0 + xp_5_0
 + xp_5_1 + xp_5_2 + xp_6_0 + xp_6_1 + xp_6_2 + xp_6_3 + xp_6_4 + xp_6_5
 + xp_7_0 + xp_7_1 + xp_8_0 + xp_8_1 + xp_9_0 + xp_10_0 + xp_10_1
 + xp_11_0 + xp_11_1 + xp_11_2 + xp_11_3 + xp_12_0 + xp_13_0 + xp_13_1
 + xp_14_0 + xp_14_1 + xp_15_0 + xp_16_0 + xp_16_1 + xp_17_0 + xp_17_1
 + xp_17_2 + xp_17_3 + xp_17_4 + xp_17_5 + xp_17_6 + xp_17_7 + xp_17_8
 + xp_18_0 + xp_18_1 + xp_18_2 + xp_18_3 + xp_18_4 + xp_18_5 + xp_19_0
 + xp_19_1 + xp_19_2 + xp_19_3 + xp_19_4 + xp_19_5 + xp_19_6 + xp_20_0
 + xp_20_1 + xp_20_2 + xp_20_3 + xp_20_4 + xp_21_0 + xp_21_1 + xp_21_2
 + xp_21_3 + xp_21_4 + xp_22_0 + xp_22_1 + xp_22_2 + xp_22_3 + xp_22_4
 + xp_22_5 + xp_22_6 + xp_23_0 + xp_23_1 + xp_23_2 + xp_23_3 + xp_23_4
 + xp_23_5 + xp_23_6

Subject To
 r_1: 0 xp_0_0 <= 28.6290322580645
 r_2: + xp_23_2 + xp_22_2 + xp_18_2 + xp_6_5 + xp_5_2 + xp_2_3
 <= 27.9004491017964
 r_3: + xp_23_3 + xp_21_1 + xp_18_4 + xp_18_3 + xp_6_4
 <= 29.7154017857143
 r_4: + xp_18_5 + xp_17_1 + xp_15_0 + xp_3_3 <= 30
 r_5: + xp_18_0 <= 26.7924528301887
 r_6: + xp_18_1 <= 28.6290322580645
 r_7: + xp_20_3 <= 28.6290322580645
 r_8: + xp_22_5 + xp_17_8 + xp_11_2 + xp_6_2 + xp_5_1 + xp_3_2 + xp_2_2
 <= 27.9004491017964
 r_9: + xp_23_5 + xp_17_5 + xp_11_1 + xp_6_3 + xp_3_1
 <= 29.7154017857143
 r_10: + xp_17_3 + xp_3_0 <= 28.6290322580645
 r_11: + xp_18_4 + xp_18_1 + xp_11_3 + xp_0_8 <= 26.7924528301887
 r_12: + xp_11_0 + xp_3_3 <= 28.6290322580645
 r_13: 0 xp_0_0 <= 28.6290322580645
 r_14: + xp_21_2 + xp_19_5 + xp_14_0 + xp_0_7 + xp_0_1
 <= 27.9004491017964
 r_15: + xp_21_0 + xp_19_3 <= 29.7154017857143
 r_16: + xp_22_1 + xp_21_4 + xp_19_4 + xp_0_5 + xp_0_3 + xp_0_2
 <= 28.6290322580645
 r_17: + xp_0_0 <= 26.7924528301887
 r_18: + xp_21_1 + xp_4_0 <= 28.6290322580645
 r_19: + xp_19_0 + xp_0_8 <= 28.6290322580645
 r_20: + xp_21_3 + xp_19_6 + xp_19_2 + xp_19_1 + xp_14_1 + xp_0_6
 + xp_0_4 <= 28.6290322580645
 r_21: + xp_20_1 <= 27.9004491017964
 r_22: + xp_21_2 + xp_20_2 + xp_7_1 <= 29.7154017857143
 r_23: + xp_22_5 + xp_22_3 + xp_22_2 <= 27.9004491017964
 r_24: + xp_23_2 + xp_17_8 + xp_17_4 + xp_6_5 + xp_6_2 + xp_6_1 + xp_3_2
 + xp_0_7 + xp_0_4 <= 28.3056478405316
 r_25: 0 xp_0_0 <= 27.9004491017964
 r_26: + xp_18_2 + xp_0_6 + xp_0_1 <= 26.7924528301887
 r_27: + xp_11_2 <= 27.9004491017964
 r_28: + xp_19_5 + xp_19_2 + xp_10_1 <= 27.9004491017964
 r_29: + xp_20_4 + xp_20_2 <= 29.7154017857143
 r_30: + xp_2_0 <= 29.7154017857143
 r_31: + xp_23_5 + xp_23_3 + xp_18_3 + xp_17_5 + xp_6_4 + xp_6_3
 + xp_3_1 + xp_2_4 <= 28.3056478405316
 r_32: + xp_2_1 <= 29.7154017857143
 r_33: + xp_11_1 + xp_2_3 <= 29.7154017857143
 r_34: + xp_19_6 + xp_19_3 + xp_18_4 + xp_2_2 <= 29.7154017857143
 r_35: 0 xp_0_0 <= 28.6290322580645
 r_36: + xp_9_0 <= 27.9004491017964
 r_37: + xp_21_4 + xp_13_1 + xp_8_1 + xp_0_3 <= 28.3056478405316
 r_38: + xp_23_6 + xp_23_4 + xp_1_1 <= 30
 r_39: + xp_19_4 + xp_17_2 + xp_0_5 <= 30
 r_40: + xp_0_2 <= 26.7924528301887
 r_41: + xp_12_0 + xp_2_4 <= 28.3056478405316
 r_42: + xp_21_4 <= 28.3056478405316
 r_43: + xp_23_6 + xp_22_6 + xp_16_0 <= 28.3056478405316
 r_44: + xp_23_5 + xp_23_3 + xp_23_2 + xp_23_1 + xp_16_1 + xp_1_2
 <= 28.3056478405316
 r_45: + xp_17_8 + xp_17_7 + xp_17_5 + xp_17_4 + xp_3_2 + xp_3_1
 <= 28.3056478405316
 r_46: + xp_18_3 + xp_0_7 + xp_0_4 + xp_0_3 <= 26.7924528301887
 r_47: + xp_22_4 + xp_16_1 + xp_13_1 <= 30
 r_48: + xp_13_0 <= 28.3056478405316
 r_49: + xp_17_6 <= 30
 r_50: 0 xp_0_0 <= 26.7924528301887
 r_51: + xp_8_1 + xp_1_1 <= 30
 r_52: + xp_8_0 + xp_1_2 <= 28.3056478405316
 r_53: + xp_1_0 <= 30
 r_54: + xp_18_5 + xp_0_5 <= 26.7924528301887
 r_55: 0 xp_0_0 <= 30
 r_56: + xp_19_4 <= 28.6290322580645
 r_57: + xp_22_1 <= 26.7924528301887
 r_58: + xp_22_3 + xp_17_4 + xp_6_1 + xp_5_0 <= 26.7924528301887
 r_59: + xp_23_4 + xp_22_0 + xp_17_2 <= 26.7924528301887
 r_60: + xp_23_6 + xp_23_1 + xp_22_6 + xp_17_7 + xp_6_0
 <= 26.7924528301887
 r_61: + xp_23_0 + xp_22_4 + xp_17_6 <= 26.7924528301887
 r_62: + xp_17_0 <= 26.7924528301887
 r_63: + xp_23_3 + xp_23_2 + xp_22_2 + xp_17_1 + xp_11_3 + xp_6_5
 + xp_6_4 + xp_5_2 <= 26.7924528301887
 r_64: + xp_23_5 + xp_22_5 + xp_17_8 + xp_17_5 + xp_17_3 + xp_6_3
 + xp_6_2 + xp_5_1 <= 26.7924528301887
 r_65: + xp_20_2 + xp_20_1 + xp_19_2 + xp_14_1 + xp_10_1 + xp_7_1
 + xp_2_1 + xp_0_6 + xp_0_4 <= 27.9004491017964
 r_66: + xp_21_3 + xp_20_4 + xp_19_6 + xp_7_0 <= 29.7154017857143
 r_67: + xp_20_3 + xp_19_1 + xp_10_0 <= 28.6290322580645
 r_68: + xp_20_0 <= 28.6290322580645

Bounds
 0 <= xp_0_0 <= 28.563919907136
 0 <= xp_0_1 <= 7.93791004617508
 0 <= xp_0_2 <= 14.0136820248836
 0 <= xp_0_3 <= 3.50342050622091
 0 <= xp_0_4 <= 1.07311171473749
 0 <= xp_0_5 <= 5.7916866167001
 0 <= xp_0_6 <= 2.14622342947498
 0 <= xp_0_7 <= 1.07311171473749
 0 <= xp_0_8 <= 0.536555857368744
 0 <= xp_1_0 <= 20.5786366088758
 0 <= xp_1_1 <= 15.1025626353196
 0 <= xp_1_2 <= 0.510255679628544
 0 <= xp_2_0 <= 24.2083133832999
 0 <= xp_2_1 <= 0.478693364288
 0 <= xp_2_2 <= 1.75171025311045
 0 <= xp_2_3 <= 7.33296742052491
 0 <= xp_2_4 <= 1.914773457152
 0 <= xp_3_0 <= 25.8074706938875
 0 <= xp_3_1 <= 5.42871123173258
 0 <= xp_3_2 <= 1.6044089379264
 0 <= xp_3_3 <= 0.320881787585279
 0 <= xp_4_0 <= 26.9331757572643
 0 <= xp_5_0 <= 20.1998818179483
 0 <= xp_5_1 <= 5.04997045448706
 0 <= xp_5_2 <= 1.68332348482902
 0 <= xp_6_0 <= 13.6349202271151
 0 <= xp_6_1 <= 1.51499113634612
 0 <= xp_6_2 <= 3.02998227269224
 0 <= xp_6_3 <= 1.51499113634612
 0 <= xp_6_4 <= 3.02998227269224
 0 <= xp_6_5 <= 1.51499113634612
 0 <= xp_7_0 <= 20.3261310793104
 0 <= xp_7_1 <= 2.90373301133006
 0 <= xp_8_0 <= 18.2640598103949
 0 <= xp_8_1 <= 2.60915140148498
 0 <= xp_9_0 <= 19.3582200755337
 0 <= xp_10_0 <= 18.1483313208129
 0 <= xp_10_1 <= 1.20988875472086
 0 <= xp_11_0 <= 26.2756537966568
 0 <= xp_11_1 <= 12.2619717717732
 0 <= xp_11_2 <= 12.2619717717732
 0 <= xp_11_3 <= 5.25513075933136
 0 <= xp_12_0 <= 18.1798936361534
 0 <= xp_13_0 <= 13.2561724430285
 0 <= xp_13_1 <= 4.41872414767618
 0 <= xp_14_0 <= 10.5207717801814
 0 <= xp_14_1 <= 6.31246306810883
 0 <= xp_15_0 <= 16.6649024998073
 0 <= xp_16_0 <= 14.9920997867585
 0 <= xp_16_1 <= 0.999473319117231
 0 <= xp_17_0 <= 27.4644904975558
 0 <= xp_17_1 <= 3.51919290533991
 0 <= xp_17_2 <= 4.69225720711989
 0 <= xp_17_3 <= 1.17306430177997
 0 <= xp_17_4 <= 1.17306430177997
 0 <= xp_17_5 <= 1.75171025311045
 0 <= xp_17_6 <= 4.67648480800088
 0 <= xp_17_7 <= 1.17306430177997
 0 <= xp_17_8 <= 1.17306430177997
 0 <= xp_18_0 <= 22.388202348226
 0 <= xp_18_1 <= 12.9458114272234
 0 <= xp_18_2 <= 2.79852529352825
 0 <= xp_18_3 <= 2.79852529352825
 0 <= xp_18_4 <= 2.79852529352825
 0 <= xp_18_5 <= 1.04681504041779
 0 <= xp_19_0 <= 29.0426167748445
 0 <= xp_19_1 <= 4.061010900309
 0 <= xp_19_2 <= 5.07626362538625
 0 <= xp_19_3 <= 2.0305054501545
 0 <= xp_19_4 <= 2.0305054501545
 0 <= xp_19_5 <= 1.01525272507725
 0 <= xp_19_6 <= 1.01525272507725
 0 <= xp_20_0 <= 28.3745390082517
 0 <= xp_20_1 <= 5.77589319705806
 0 <= xp_20_2 <= 0.962648866176344
 0 <= xp_20_3 <= 4.63965685163948
 0 <= xp_20_4 <= 3.67700798546314
 0 <= xp_21_0 <= 27.9694945498455
 0 <= xp_21_1 <= 2.54076112978305
 0 <= xp_21_2 <= 6.83323251267654
 0 <= xp_21_3 <= 2.54076112978305
 0 <= xp_21_4 <= 1.6938407531887
 0 <= xp_22_0 <= 22.2356634193851
 0 <= xp_22_1 <= 1.48342531758507
 0 <= xp_22_2 <= 7.21198380018358
 0 <= xp_22_3 <= 4.24513316501344
 0 <= xp_22_4 <= 2.2251379763776
 0 <= xp_22_5 <= 1.75171025311045
 0 <= xp_22_6 <= 0.741712658792535
 0 <= xp_23_0 <= 20.2156682307493
 0 <= xp_23_1 <= 10.7154043064045
 0 <= xp_23_2 <= 0.741712658792535
 0 <= xp_23_3 <= 2.49342291190299
 0 <= xp_23_4 <= 0.741712658792535
 0 <= xp_23_5 <= 4.24513316501344
 0 <= xp_23_6 <= 0.741712658792535

End
